862.8 0
0 81 78 76 71 70 73 77 79 80 72 61 64 66 0
0 41 40 59 60 58 56 53 54 55 68 69 0
0 21 22 25 27 29 33 32 24 20 0
0 75 1 2 4 6 9 11 8 7 3 5 0
0 98 96 95 94 92 93 97 100 99 0
0 67 65 62 74 63 0
0 47 46 50 51 48 45 57 44 42 43 0
0 49 52 31 35 37 38 39 36 34 30 28 26 23 0
0 90 87 86 83 82 84 85 88 89 91 0
0 10 12 14 16 15 19 18 17 13 0
